NAME : prob10c
TYPE : PDTSP
DIMENSION : 21
EDGE_WEIGHT_TYPE : EUC_2D
NODE_COORD_SECTION
1 387 137
2 595 4
3 514 483
4 342 655
5 715 887
6 111 687
7 692 933
8 791 847
9 702 762
10 543 443
11 918 786
12 852 236
13 9 481
14 609 55
15 372 215
16 777 91
17 203 173
18 488 312
19 928 755
20 90 700
21 870 707
PICKUP_AND_DELIVERY_SECTION
1 0 0 0 0 0 0
2 0 0 0 0 12 0
3 0 0 0 0 13 0
4 0 0 0 0 14 0
5 0 0 0 0 15 0
6 0 0 0 0 16 0
7 0 0 0 0 17 0
8 0 0 0 0 18 0
9 0 0 0 0 19 0
10 0 0 0 0 20 0
11 0 0 0 0 21 0
12 0 0 0 0 0 2
13 0 0 0 0 0 3
14 0 0 0 0 0 4
15 0 0 0 0 0 5
16 0 0 0 0 0 6
17 0 0 0 0 0 7
18 0 0 0 0 0 8
19 0 0 0 0 0 9
20 0 0 0 0 0 10
21 0 0 0 0 0 11
DEPOT_SECTION
1 
-1
EOF
